decision_x1=[0,4];
decision_x2=[0,4];
decision_x3=[0,4];
decision_x4=[0,4];
decision_x5=[0,4];
decision_x6=[0,4];
decision_x7=[0,4];
decision_x8=[0,4];
decision_x9=[0,4];
decision_x10=[0,4];
random_y1=[0,4];
random_y2=[0,4];
random_y3=[0,4];
random_y4=[0,4];
random_y5=[0,4];
random_y6=[0,4];
random_y7=[0,4];
random_y8=[0,4];
random_y9=[0,4];
random_y10=[0,4];
constraint_x2_x1=[
0,0,25|
0,1,53|
0,2,37|
0,3,6.7|
0,4,89|
1,0,60|
1,1,1.3|
1,2,88|
1,3,11|
1,4,89|
2,0,18|
2,1,78|
2,2,84|
2,3,2.6|
2,4,56|
3,0,40|
3,1,70|
3,2,40|
3,3,72|
3,4,5.2|
4,0,82|
4,1,47|
4,2,39|
4,3,71|
4,4,89|
];
constraint_x3_x1=[
0,0,9.5|
0,1,27|
0,2,19|
0,3,5.3|
0,4,24|
1,0,72|
1,1,72|
1,2,63|
1,3,58|
1,4,70|
2,0,94|
2,1,33|
2,2,98|
2,3,39|
2,4,68|
3,0,9.8|
3,1,65|
3,2,2.7|
3,3,28|
3,4,62|
4,0,84|
4,1,54|
4,2,5.5|
4,3,82|
4,4,69|
];
constraint_x3_x2=[
0,0,84|
0,1,57|
0,2,82|
0,3,65|
0,4,66|
1,0,44|
1,1,27|
1,2,74|
1,3,30|
1,4,0.73|
2,0,49|
2,1,90|
2,2,84|
2,3,94|
2,4,9|
3,0,5.5|
3,1,24|
3,2,20|
3,3,26|
3,4,51|
4,0,59|
4,1,45|
4,2,78|
4,3,77|
4,4,36|
];
constraint_x4_x2=[
0,0,91|
0,1,93|
0,2,39|
0,3,6.4|
0,4,77|
1,0,54|
1,1,14|
1,2,68|
1,3,91|
1,4,74|
2,0,0.24|
2,1,71|
2,2,17|
2,3,1e+02|
2,4,17|
3,0,49|
3,1,29|
3,2,53|
3,3,19|
3,4,6.8|
4,0,79|
4,1,68|
4,2,61|
4,3,92|
4,4,33|
];
constraint_x5_x1=[
0,0,32|
0,1,47|
0,2,18|
0,3,43|
0,4,16|
1,0,23|
1,1,22|
1,2,51|
1,3,51|
1,4,29|
2,0,13|
2,1,91|
2,2,70|
2,3,96|
2,4,34|
3,0,88|
3,1,24|
3,2,25|
3,3,81|
3,4,28|
4,0,22|
4,1,65|
4,2,21|
4,3,53|
4,4,93|
];
constraint_x5_x4=[
0,0,5|
0,1,38|
0,2,73|
0,3,99|
0,4,18|
1,0,25|
1,1,78|
1,2,31|
1,3,43|
1,4,28|
2,0,96|
2,1,66|
2,2,79|
2,3,94|
2,4,53|
3,0,72|
3,1,72|
3,2,71|
3,3,46|
3,4,2|
4,0,60|
4,1,86|
4,2,37|
4,3,6.2|
4,4,39|
];
constraint_x6_x2=[
0,0,59|
0,1,8.3|
0,2,52|
0,3,41|
0,4,37|
1,0,53|
1,1,92|
1,2,33|
1,3,17|
1,4,13|
2,0,62|
2,1,6.1|
2,2,9.1|
2,3,50|
2,4,58|
3,0,9.7|
3,1,46|
3,2,2.6|
3,3,18|
3,4,32|
4,0,14|
4,1,60|
4,2,97|
4,3,41|
4,4,18|
];
constraint_x7_x2=[
0,0,39|
0,1,52|
0,2,54|
0,3,13|
0,4,28|
1,0,7.9|
1,1,39|
1,2,97|
1,3,73|
1,4,0.74|
2,0,58|
2,1,9.2|
2,2,73|
2,3,38|
2,4,28|
3,0,43|
3,1,51|
3,2,36|
3,3,1e+02|
3,4,30|
4,0,71|
4,1,96|
4,2,41|
4,3,28|
4,4,61|
];
constraint_x7_x4=[
0,0,40|
0,1,0.26|
0,2,98|
0,3,96|
0,4,89|
1,0,77|
1,1,46|
1,2,19|
1,3,7.7|
1,4,52|
2,0,48|
2,1,14|
2,2,50|
2,3,73|
2,4,88|
3,0,40|
3,1,10|
3,2,31|
3,3,3.6|
3,4,29|
4,0,72|
4,1,98|
4,2,13|
4,3,62|
4,4,6.2|
];
constraint_x7_x5=[
0,0,45|
0,1,18|
0,2,85|
0,3,52|
0,4,73|
1,0,41|
1,1,31|
1,2,26|
1,3,98|
1,4,65|
2,0,57|
2,1,62|
2,2,74|
2,3,36|
2,4,34|
3,0,18|
3,1,68|
3,2,32|
3,3,48|
3,4,89|
4,0,17|
4,1,90|
4,2,35|
4,3,23|
4,4,70|
];
constraint_x7_x6=[
0,0,43|
0,1,51|
0,2,73|
0,3,34|
0,4,96|
1,0,78|
1,1,53|
1,2,93|
1,3,1e+02|
1,4,20|
2,0,84|
2,1,79|
2,2,86|
2,3,65|
2,4,76|
3,0,90|
3,1,75|
3,2,77|
3,3,2.8|
3,4,38|
4,0,50|
4,1,71|
4,2,4.2|
4,3,72|
4,4,94|
];
constraint_x8_x2=[
0,0,83|
0,1,68|
0,2,85|
0,3,9.8|
0,4,54|
1,0,40|
1,1,47|
1,2,89|
1,3,30|
1,4,24|
2,0,26|
2,1,4.9|
2,2,80|
2,3,58|
2,4,69|
3,0,55|
3,1,10|
3,2,56|
3,3,48|
3,4,46|
4,0,88|
4,1,1.8|
4,2,84|
4,3,44|
4,4,41|
];
constraint_x8_x3=[
0,0,8.6|
0,1,19|
0,2,75|
0,3,60|
0,4,20|
1,0,5.8|
1,1,38|
1,2,50|
1,3,43|
1,4,2.5|
2,0,2|
2,1,94|
2,2,37|
2,3,56|
2,4,94|
3,0,75|
3,1,82|
3,2,23|
3,3,39|
3,4,94|
4,0,21|
4,1,88|
4,2,17|
4,3,0.61|
4,4,36|
];
constraint_x8_x4=[
0,0,48|
0,1,32|
0,2,83|
0,3,8.2|
0,4,21|
1,0,2.3|
1,1,88|
1,2,11|
1,3,77|
1,4,19|
2,0,51|
2,1,95|
2,2,41|
2,3,33|
2,4,1e+02|
3,0,89|
3,1,6|
3,2,52|
3,3,44|
3,4,39|
4,0,94|
4,1,23|
4,2,13|
4,3,38|
4,4,50|
];
constraint_x9_x1=[
0,0,93|
0,1,65|
0,2,39|
0,3,45|
0,4,79|
1,0,98|
1,1,91|
1,2,60|
1,3,53|
1,4,12|
2,0,34|
2,1,15|
2,2,43|
2,3,73|
2,4,46|
3,0,77|
3,1,75|
3,2,24|
3,3,64|
3,4,48|
4,0,68|
4,1,38|
4,2,87|
4,3,74|
4,4,46|
];
constraint_x9_x2=[
0,0,79|
0,1,99|
0,2,77|
0,3,64|
0,4,69|
1,0,75|
1,1,31|
1,2,83|
1,3,40|
1,4,57|
2,0,33|
2,1,88|
2,2,56|
2,3,24|
2,4,90|
3,0,73|
3,1,9.2|
3,2,58|
3,3,37|
3,4,63|
4,0,30|
4,1,27|
4,2,30|
4,3,83|
4,4,41|
];
constraint_x9_x4=[
0,0,22|
0,1,51|
0,2,29|
0,3,62|
0,4,22|
1,0,35|
1,1,77|
1,2,25|
1,3,5.3|
1,4,83|
2,0,83|
2,1,42|
2,2,21|
2,3,91|
2,4,49|
3,0,89|
3,1,1.5|
3,2,91|
3,3,93|
3,4,80|
4,0,41|
4,1,63|
4,2,59|
4,3,15|
4,4,93|
];
constraint_x9_x6=[
0,0,17|
0,1,3.3|
0,2,63|
0,3,46|
0,4,27|
1,0,15|
1,1,97|
1,2,34|
1,3,66|
1,4,22|
2,0,40|
2,1,14|
2,2,28|
2,3,44|
2,4,59|
3,0,35|
3,1,78|
3,2,52|
3,3,26|
3,4,89|
4,0,26|
4,1,52|
4,2,73|
4,3,4.5|
4,4,61|
];
constraint_x9_x7=[
0,0,32|
0,1,1.1|
0,2,17|
0,3,39|
0,4,54|
1,0,96|
1,1,10|
1,2,67|
1,3,28|
1,4,43|
2,0,77|
2,1,55|
2,2,78|
2,3,53|
2,4,41|
3,0,61|
3,1,31|
3,2,15|
3,3,68|
3,4,50|
4,0,85|
4,1,64|
4,2,78|
4,3,79|
4,4,96|
];
constraint_x10_x4=[
0,0,87|
0,1,52|
0,2,41|
0,3,72|
0,4,34|
1,0,99|
1,1,91|
1,2,68|
1,3,56|
1,4,96|
2,0,94|
2,1,35|
2,2,66|
2,3,66|
2,4,66|
3,0,91|
3,1,23|
3,2,12|
3,3,96|
3,4,51|
4,0,17|
4,1,46|
4,2,73|
4,3,50|
4,4,31|
];
constraint_x10_x5=[
0,0,73|
0,1,28|
0,2,87|
0,3,88|
0,4,33|
1,0,58|
1,1,64|
1,2,63|
1,3,56|
1,4,82|
2,0,45|
2,1,17|
2,2,1e+02|
2,3,12|
2,4,83|
3,0,12|
3,1,81|
3,2,36|
3,3,91|
3,4,33|
4,0,76|
4,1,61|
4,2,1.8|
4,3,66|
4,4,22|
];
constraint_x10_x6=[
0,0,43|
0,1,90|
0,2,1.4|
0,3,88|
0,4,83|
1,0,83|
1,1,22|
1,2,79|
1,3,84|
1,4,53|
2,0,38|
2,1,17|
2,2,7.8|
2,3,4.8|
2,4,80|
3,0,2.4|
3,1,39|
3,2,47|
3,3,40|
3,4,61|
4,0,24|
4,1,55|
4,2,34|
4,3,52|
4,4,84|
];
constraint_x10_x8=[
0,0,60|
0,1,16|
0,2,61|
0,3,62|
0,4,60|
1,0,56|
1,1,57|
1,2,43|
1,3,32|
1,4,2.2|
2,0,19|
2,1,70|
2,2,46|
2,3,80|
2,4,50|
3,0,76|
3,1,41|
3,2,11|
3,3,78|
3,4,26|
4,0,37|
4,1,26|
4,2,87|
4,3,39|
4,4,14|
];
constraint_x1_y1=[
0,0,86|
0,1,86|
0,2,91|
0,3,32|
0,4,11|
1,0,5.3|
1,1,39|
1,2,3.6|
1,3,29|
1,4,30|
2,0,19|
2,1,67|
2,2,46|
2,3,75|
2,4,12|
3,0,67|
3,1,9.8|
3,2,71|
3,3,41|
3,4,10|
4,0,34|
4,1,9.8|
4,2,3.9|
4,3,78|
4,4,85|
];
constraint_x2_y2=[
0,0,77|
0,1,14|
0,2,29|
0,3,48|
0,4,65|
1,0,44|
1,1,20|
1,2,30|
1,3,52|
1,4,36|
2,0,49|
2,1,37|
2,2,54|
2,3,84|
2,4,48|
3,0,29|
3,1,7.2|
3,2,5.8|
3,3,24|
3,4,15|
4,0,17|
4,1,15|
4,2,90|
4,3,39|
4,4,75|
];
constraint_x3_y3=[
0,0,71|
0,1,72|
0,2,97|
0,3,24|
0,4,59|
1,0,30|
1,1,4.8|
1,2,0.97|
1,3,45|
1,4,18|
2,0,74|
2,1,84|
2,2,15|
2,3,52|
2,4,52|
3,0,76|
3,1,43|
3,2,21|
3,3,20|
3,4,27|
4,0,8.3|
4,1,74|
4,2,83|
4,3,82|
4,4,69|
];
constraint_x4_y4=[
0,0,17|
0,1,37|
0,2,84|
0,3,53|
0,4,37|
1,0,20|
1,1,46|
1,2,49|
1,3,76|
1,4,66|
2,0,47|
2,1,96|
2,2,12|
2,3,71|
2,4,83|
3,0,93|
3,1,51|
3,2,96|
3,3,57|
3,4,99|
4,0,3.5|
4,1,56|
4,2,2.2|
4,3,84|
4,4,57|
];
constraint_x5_y5=[
0,0,5.3|
0,1,76|
0,2,69|
0,3,72|
0,4,31|
1,0,82|
1,1,98|
1,2,3.9|
1,3,5.1|
1,4,42|
2,0,54|
2,1,93|
2,2,15|
2,3,97|
2,4,63|
3,0,41|
3,1,12|
3,2,58|
3,3,25|
3,4,74|
4,0,62|
4,1,29|
4,2,86|
4,3,8.6|
4,4,87|
];
constraint_x6_y6=[
0,0,88|
0,1,1e+02|
0,2,52|
0,3,20|
0,4,65|
1,0,75|
1,1,0.29|
1,2,51|
1,3,54|
1,4,33|
2,0,77|
2,1,55|
2,2,27|
2,3,73|
2,4,3.9|
3,0,88|
3,1,90|
3,2,88|
3,3,40|
3,4,3.7|
4,0,9.2|
4,1,18|
4,2,1.6|
4,3,3.7|
4,4,87|
];
constraint_x7_y7=[
0,0,47|
0,1,3.3|
0,2,93|
0,3,75|
0,4,95|
1,0,46|
1,1,3.7|
1,2,9.8|
1,3,65|
1,4,60|
2,0,96|
2,1,64|
2,2,65|
2,3,87|
2,4,24|
3,0,37|
3,1,78|
3,2,21|
3,3,16|
3,4,38|
4,0,93|
4,1,27|
4,2,91|
4,3,62|
4,4,3.3|
];
constraint_x8_y8=[
0,0,12|
0,1,65|
0,2,0.75|
0,3,19|
0,4,66|
1,0,49|
1,1,48|
1,2,54|
1,3,90|
1,4,16|
2,0,79|
2,1,40|
2,2,23|
2,3,62|
2,4,28|
3,0,83|
3,1,59|
3,2,25|
3,3,92|
3,4,76|
4,0,19|
4,1,92|
4,2,75|
4,3,82|
4,4,67|
];
constraint_x9_y9=[
0,0,1.8|
0,1,3.5|
0,2,79|
0,3,54|
0,4,27|
1,0,66|
1,1,18|
1,2,30|
1,3,40|
1,4,22|
2,0,84|
2,1,30|
2,2,60|
2,3,30|
2,4,29|
3,0,1.3|
3,1,74|
3,2,57|
3,3,99|
3,4,81|
4,0,89|
4,1,30|
4,2,13|
4,3,21|
4,4,31|
];
constraint_x10_y10=[
0,0,57|
0,1,90|
0,2,12|
0,3,43|
0,4,66|
1,0,96|
1,1,45|
1,2,9.3|
1,3,47|
1,4,10|
2,0,28|
2,1,48|
2,2,79|
2,3,70|
2,4,11|
3,0,38|
3,1,37|
3,2,43|
3,3,43|
3,4,39|
4,0,54|
4,1,86|
4,2,39|
4,3,76|
4,4,19|
];
initial_distribution_y1=[0.22,0.22,0.29,0.18,0.082];
initial_distribution_y2=[0.087,0.14,0.46,0.07,0.25];
initial_distribution_y3=[0.17,0.21,0.18,0.13,0.32];
initial_distribution_y4=[0.21,0.26,0.28,0.047,0.2];
initial_distribution_y5=[0.34,0.16,0.34,0.13,0.037];
initial_distribution_y6=[0.3,0.011,0.12,0.18,0.38];
initial_distribution_y7=[0.17,0.28,0.28,0.028,0.25];
initial_distribution_y8=[0.25,0.29,0.28,0.051,0.13];
initial_distribution_y9=[0.24,0.17,0.29,0.17,0.14];
initial_distribution_y10=[0.21,0.023,0.23,0.34,0.19];
transition_y1=[
0.2,0.17,0.19,0.2,0.25|
0.31,0.28,0.17,0.14,0.099|
0.11,0.18,0.053,0.36,0.3|
0.035,0.18,0.3,0.24,0.25|
0.25,0.13,0.26,0.21,0.14|
];
transition_y2=[
0.096,0.42,0.28,0.04,0.17|
0.024,0.047,0.44,0.034,0.45|
0.14,0.15,0.037,0.29,0.38|
0.092,0.25,0.17,0.35,0.14|
0.29,0.45,0.05,0.1,0.11|
];
transition_y3=[
0.29,0.16,0.21,0.21,0.13|
0.28,0.081,0.23,0.16,0.25|
0.4,0.18,0.18,0.058,0.18|
0.079,0.22,0.15,0.41,0.14|
0.29,0.097,0.27,0.27,0.077|
];
transition_y4=[
0.28,0.31,0.17,0.15,0.095|
0.28,0.1,0.17,0.26,0.18|
0.2,0.24,0.052,0.28,0.23|
0.25,0.21,0.32,0.054,0.17|
0.22,0.072,0.26,0.3,0.15|
];
transition_y5=[
0.15,0.35,0.15,0.074,0.28|
0.24,0.088,0.19,0.23,0.25|
0.25,0.099,0.16,0.25,0.24|
0.3,0.18,0.19,0.2,0.14|
0.04,0.26,0.23,0.45,0.019|
];
transition_y6=[
0.47,0.26,0.015,0.056,0.2|
0.2,0.21,0.27,0.27,0.051|
0.25,0.22,0.2,0.25,0.084|
0.14,0.0083,0.21,0.11,0.54|
0.16,0.17,0.11,0.19,0.36|
];
transition_y7=[
0.059,0.15,0.18,0.33,0.28|
0.13,0.22,0.28,0.25,0.13|
0.045,0.17,0.33,0.45,0.0055|
0.02,0.38,0.35,0.043,0.21|
0.13,0.0079,0.41,0.13,0.33|
];
transition_y8=[
0.26,0.26,0.19,0.13,0.16|
0.27,0.11,0.3,0.01,0.3|
0.3,0.24,0.27,0.017,0.16|
0.29,0.28,0.087,0.11,0.24|
0.21,0.21,0.25,0.29,0.033|
];
transition_y9=[
0.25,0.38,0.29,0.068,0.017|
0.2,0.088,0.32,0.25,0.15|
0.24,0.025,0.13,0.11,0.5|
0.12,0.35,0.36,0.064,0.1|
0.021,0.07,0.54,0.3,0.067|
];
transition_y10=[
0.28,0.26,0.043,0.14,0.28|
0.24,0.28,0.21,0.17,0.095|
0.3,0.35,0.16,0.12,0.074|
0.1,0.27,0.23,0.12,0.28|
0.2,0.088,0.14,0.23,0.34|
];
